NAME: test1830
TYPE: TSP
DIMENSION: 11
EDGE_WEIGHT_TYPE: EUC_2D
NODE_COORD_SECTION
1 11.650492439757087 69.31355512900946
2 29.369300444374037 37.57336132884289
3 20.889692297557836 38.2354231838713
4 30.302344211027478 87.10985953055298
5 28.655108925476892 86.62430443813719
6 81.89082907101267 83.90373309895858
7 34.58120465025459 6.32784930453486
8 99.71555282904063 64.52920880350521
9 23.545869645937422 9.252517836788499
10 88.47680924725552 32.86632872349693
11 71.21550496540638 18.811281907362908
EOF
